18 1
18 1
23 1
23 1
31 1
31 1
44 1
46 1
46 1
46 1
5 2
5 4
50 2
50 3
37 3
37 4
53 3
53 3
57 3
57 3
113 3
112 7
15 4
15 4
28 4
28 4
32 4
32 4
44 4
44 4
84 4
88 6
108 4
108 6
49 5
49 3
27 6
27 6
95 6
95 6
31 7
31 4
56 7
57 7
65 7
65 7
88 7
88 6
111 7
111 7
0 8
5 4
37 8
37 8
112 8
112 8
17 9
16 9
109 9
109 7
57 10
57 10
27 10
27 10
41 11
41 11
15 12
16 12
116 12
116 12
29 13
29 13
16 13
16 13
26 13
26 13
69 14
69 14
70 14
70 14
104 14
107 20
34 15
33 15
31 15
31 15
57 15
57 15
76 15
76 15
4 16
4 18
53 16
55 16
115 16
115 16
116 16
116 16
40 17
41 17
22 17
26 13
11 18
4 18
33 18
33 18
46 19
41 17
2 19
4 19
80 19
80 19
112 19
112 19
55 20
55 20
57 20
57 20
90 20
90 24
107 20
107 20
35 20
33 20
112 21
112 21
5 22
5 22
59 22
59 22
114 22
114 22
30 23
30 23
16 23
16 13
50 23
50 23
80 24
80 24
88 24
88 24
99 24
99 24
115 24
115 24
30 24
30 24
118 24
115 24
75 25
80 25
81 25
80 25
89 26
89 24
59 26
59 26
114 26
114 26
2 27
5 27
107 27
107 29
25 28
25 29
110 29
110 29
23 29
25 29
106 30
106 29
36 30
41 31
112 30
112 30
48 30
48 30
8 30
6 30
43 31
43 31
112 31
112 31
41 31
41 31
12 32
12 35
111 32
112 32
27 32
27 32
100 33
100 33
93 33
94 33
68 33
68 34
1 34
3 34
18 34
18 34
69 34
68 34
19 34
19 34
3 34
3 34
112 35
112 35
71 35
71 35
10 35
10 35
6 35
6 35
42 35
42 31
79 35
71 35
58 36
59 36
63 36
63 36
119 36
112 36
11 37
11 35
30 37
27 34
108 37
111 37
94 37
94 33
15 38
15 35
111 39
111 37
68 39
68 36
18 1
16 4
16 4
16 9
16 9
16 12
16 12
16 12
23 1
18 1
31 4
31 1
31 4
31 4
32 4
31 4
37 4
32 4
37 4
37 4
37 8
37 4
44 4
37 4
41 11
37 8
46 1
46 3
50 3
49 3
49 3
46 3
46 3
44 4
53 3
50 3
80 24
80 19
80 24
80 24
80 25
80 24
88 24
80 24
107 29
106 29
106 29
100 29
100 29
99 24
110 29
107 29
112 29
110 29
112 30
112 29
112 31
112 30
112 32
112 31
112 35
112 32
112 36
112 35
111 37
112 36
114 26
112 29
112 19
112 20
112 20
112 21
115 16
112 19
88 6
95 6
108 6
109 7
109 7
111 7
111 7
112 7
112 7
112 8
112 8
116 12
116 16
115 16
116 12
116 16
95 6
108 6
107 20
112 20
112 21
114 22
114 22
114 24
115 24
114 24
114 24
114 26
99 24
90 24
100 33
100 29
89 24
88 24
94 33
100 33
90 24
89 24
80 19
76 15
57 7
57 3
57 7
57 7
57 10
57 7
57 15
57 10
55 16
57 15
55 20
55 16
57 20
55 20
57 22
57 20
59 22
57 22
68 34
68 35
71 35
68 35
68 35
68 36
68 36
63 36
63 36
59 36
59 36
59 26
59 26
59 22
50 23
57 22
48 30
50 23
41 31
42 31
42 31
43 31
43 31
48 30
57 3
53 3
65 7
57 7
69 14
65 7
70 14
69 14
76 15
70 14
41 17
41 11
31 1
23 1
28 4
31 4
33 15
31 15
33 18
33 15
33 20
33 18
30 23
33 20
11 35
12 35
12 35
15 35
15 35
18 34
10 35
11 35
4 18
4 19
4 19
5 22
5 27
6 30
6 30
6 34
6 34
6 35
3 34
6 34
6 35
10 35
5 22
5 27
18 34
19 34
25 29
27 29
27 29
30 24
27 32
27 29
19 34
27 34
27 34
27 32
30 24
30 23
31 15
29 13
27 6
28 4
26 13
27 13
27 13
27 10
29 13
27 13
27 10
27 6
15 4
16 4
16 13
16 12
5 4
15 4
